NAME: map4_72
TYPE: TSP
COMMENT: autogenerated using a wonderful map creator
DIMENSION: 96
EDGE_WEIGHT_TYPE: EUC_2D
NODE_COORD_SECTION
1 4.0 2.0
2 3.0 2.0
3 4.0 5.0
4 3.0 5.0
5 4.0 8.0
6 3.0 8.0
7 79.0 2.0
8 80.0 2.0
9 79.0 5.0
10 80.0 5.0
11 79.0 8.0
12 80.0 8.0
13 2.0 2.0
14 1.0 2.0
15 81.0 5.0
16 82.0 5.0
17 2.0 8.0
18 1.0 8.0
19 81.0 2.0
20 82.0 2.0
21 2.0 5.0
22 1.0 5.0
23 81.0 8.0
24 82.0 8.0
25 79.0 3.0
26 80.0 3.0
27 79.0 6.0
28 80.0 6.0
29 79.0 9.0
30 80.0 9.0
31 4.0 3.0
32 3.0 3.0
33 4.0 6.0
34 3.0 6.0
35 4.0 9.0
36 3.0 9.0
37 81.0 3.0
38 82.0 3.0
39 2.0 6.0
40 1.0 6.0
41 81.0 9.0
42 82.0 9.0
43 2.0 3.0
44 1.0 3.0
45 81.0 6.0
46 82.0 6.0
47 2.0 9.0
48 1.0 9.0
49 31.0 5.0
50 53.0 5.0
51 55.0 2.0
52 62.0 8.0
53 68.0 2.0
54 22.0 5.0
55 58.0 4.0
56 69.0 4.0
57 47.0 7.0
58 42.0 2.0
59 75.0 2.0
60 40.0 5.0
61 9.0 8.0
62 35.0 2.0
63 24.0 2.0
64 11.0 8.0
65 44.0 8.0
66 68.0 8.0
67 57.0 2.0
68 25.0 4.0
69 57.0 5.0
70 13.0 2.0
71 15.0 5.0
72 46.0 8.0
73 48.0 5.0
74 26.0 5.0
75 26.0 8.0
76 15.0 8.0
77 39.0 5.0
78 13.0 8.0
79 70.0 2.0
80 14.0 3.0
81 59.0 5.0
82 58.0 3.0
83 50.0 2.0
84 70.0 8.0
85 19.0 2.0
86 41.0 2.0
87 17.0 5.0
88 74.0 8.0
89 61.0 8.0
90 32.0 2.0
91 52.0 8.0
92 43.0 5.0
93 65.0 5.0
94 63.0 2.0
95 21.0 2.0
96 54.0 2.0
97 12.0 2.0
98 45.0 2.0
99 21.0 8.0
100 12.0 5.0
101 14.0 2.0
102 56.0 5.0
103 67.0 5.0
104 23.0 8.0
105 14.0 5.0
106 47.0 5.0
107 36.0 5.0
108 60.0 2.0
109 27.0 8.0
110 60.0 5.0
111 31.0 2.0
112 51.0 5.0
113 38.0 2.0
114 25.0 8.0
115 18.0 2.0
116 40.0 2.0
117 73.0 2.0
118 29.0 5.0
119 62.0 5.0
120 64.0 2.0
START_DEPOT_SECTION
1
2
3
4
5
6
7
8
9
10
11
12
13
14
15
16
17
18
19
20
21
22
23
24
-1
END_DEPOT_SECTION
25
26
27
28
29
30
31
32
33
34
35
36
37
38
39
40
41
42
43
44
45
46
47
48
-1
EOF
